p cnf 361 1
361 0
w 1 0.160479
w 2 1 0.974844
w 2 -1 0.0286826
w 3 2 0.0907899
w 3 -2 0.648277
w 4 3 1
w 4 -3 0
w 5 4 0
w 5 -4 1
w 6 5 0.638472
w 6 -5 0.549815
w 7 6 1
w 7 -6 0
w 8 7 1
w 8 -7 0
w 9 8 1
w 9 -8 0
w 10 9 1
w 10 -9 0
w 11 10 0
w 11 -10 1
w 12 11 0.906637
w 12 -11 0.223528
w 13 12 0.754981
w 13 -12 0.112346
w 14 13 0
w 14 -13 1
w 15 14 0.322396
w 15 -14 0.944142
w 16 15 0.413186
w 16 -15 0.592419
w 17 16 0.0679541
w 17 -16 0.942205
w 18 17 1
w 18 -17 0
w 19 18 1
w 19 -18 0
w 20 1 0
w 20 -1 1
w 21 20 2 1
w 21 20 -2 0
w 21 -20 2 0
w 21 -20 -2 0
w 22 21 3 0.300858
w 22 21 -3 0.584246
w 22 -21 3 0.678429
w 22 -21 -3 0.207494
w 23 22 4 0.46252
w 23 22 -4 0.962475
w 23 -22 4 0.920121
w 23 -22 -4 0.810072
w 24 23 5 0.839592
w 24 23 -5 0.132467
w 24 -23 5 0.822077
w 24 -23 -5 0.636606
w 25 24 6 1
w 25 24 -6 0
w 25 -24 6 1
w 25 -24 -6 1
w 26 25 7 0
w 26 25 -7 1
w 26 -25 7 0
w 26 -25 -7 0
w 27 26 8 1
w 27 26 -8 1
w 27 -26 8 0
w 27 -26 -8 1
w 28 27 9 0
w 28 27 -9 1
w 28 -27 9 0
w 28 -27 -9 0
w 29 28 10 0.361547
w 29 28 -10 0.766476
w 29 -28 10 0.590289
w 29 -28 -10 0.239482
w 30 29 11 0
w 30 29 -11 0
w 30 -29 11 1
w 30 -29 -11 1
w 31 30 12 0
w 31 30 -12 0
w 31 -30 12 1
w 31 -30 -12 1
w 32 31 13 1
w 32 31 -13 1
w 32 -31 13 0
w 32 -31 -13 1
w 33 32 14 1
w 33 32 -14 0
w 33 -32 14 0
w 33 -32 -14 1
w 34 33 15 0.317816
w 34 33 -15 0.813391
w 34 -33 15 0.0892026
w 34 -33 -15 0.716888
w 35 34 16 1
w 35 34 -16 0
w 35 -34 16 1
w 35 -34 -16 1
w 36 35 17 1
w 36 35 -17 1
w 36 -35 17 1
w 36 -35 -17 0
w 37 36 18 1
w 37 36 -18 0
w 37 -36 18 0
w 37 -36 -18 0
w 38 37 19 0.703203
w 38 37 -19 0.458423
w 38 -37 19 0.282257
w 38 -37 -19 0.611408
w 39 20 0.517775
w 39 -20 0.931883
w 40 39 21 0.644013
w 40 39 -21 0.706693
w 40 -39 21 0.663325
w 40 -39 -21 0.961829
w 41 40 22 1
w 41 40 -22 0
w 41 -40 22 1
w 41 -40 -22 0
w 42 41 23 0.606052
w 42 41 -23 0.0816573
w 42 -41 23 0.0750674
w 42 -41 -23 0.638342
w 43 42 24 0
w 43 42 -24 1
w 43 -42 24 0
w 43 -42 -24 1
w 44 43 25 0.0478894
w 44 43 -25 0.998359
w 44 -43 25 0.943709
w 44 -43 -25 0.751092
w 45 44 26 1
w 45 44 -26 0
w 45 -44 26 1
w 45 -44 -26 0
w 46 45 27 0
w 46 45 -27 0
w 46 -45 27 1
w 46 -45 -27 0
w 47 46 28 0
w 47 46 -28 1
w 47 -46 28 1
w 47 -46 -28 1
w 48 47 29 0
w 48 47 -29 0
w 48 -47 29 1
w 48 -47 -29 1
w 49 48 30 0.49177
w 49 48 -30 0.31506
w 49 -48 30 0.858691
w 49 -48 -30 0.206768
w 50 49 31 0
w 50 49 -31 1
w 50 -49 31 1
w 50 -49 -31 1
w 51 50 32 1
w 51 50 -32 0
w 51 -50 32 0
w 51 -50 -32 0
w 52 51 33 0
w 52 51 -33 0
w 52 -51 33 1
w 52 -51 -33 1
w 53 52 34 1
w 53 52 -34 1
w 53 -52 34 0
w 53 -52 -34 0
w 54 53 35 0.846377
w 54 53 -35 0.282174
w 54 -53 35 0.192907
w 54 -53 -35 0.0740237
w 55 54 36 0
w 55 54 -36 0
w 55 -54 36 0
w 55 -54 -36 1
w 56 55 37 0.0828845
w 56 55 -37 0.814652
w 56 -55 37 0.0272185
w 56 -55 -37 0.706377
w 57 56 38 1
w 57 56 -38 0
w 57 -56 38 0
w 57 -56 -38 1
w 58 39 1
w 58 -39 0
w 59 58 40 1
w 59 58 -40 0
w 59 -58 40 0
w 59 -58 -40 0
w 60 59 41 0.912435
w 60 59 -41 0.364857
w 60 -59 41 0.378452
w 60 -59 -41 0.798298
w 61 60 42 0
w 61 60 -42 0
w 61 -60 42 1
w 61 -60 -42 0
w 62 61 43 1
w 62 61 -43 0
w 62 -61 43 1
w 62 -61 -43 1
w 63 62 44 0
w 63 62 -44 1
w 63 -62 44 0
w 63 -62 -44 1
w 64 63 45 0
w 64 63 -45 1
w 64 -63 45 1
w 64 -63 -45 1
w 65 64 46 1
w 65 64 -46 0
w 65 -64 46 0
w 65 -64 -46 0
w 66 65 47 1
w 66 65 -47 0
w 66 -65 47 0
w 66 -65 -47 0
w 67 66 48 0
w 67 66 -48 0
w 67 -66 48 0
w 67 -66 -48 1
w 68 67 49 1
w 68 67 -49 0
w 68 -67 49 1
w 68 -67 -49 1
w 69 68 50 0.0597158
w 69 68 -50 0.167787
w 69 -68 50 0.292642
w 69 -68 -50 0.743515
w 70 69 51 0
w 70 69 -51 1
w 70 -69 51 1
w 70 -69 -51 1
w 71 70 52 0.333449
w 71 70 -52 0.536495
w 71 -70 52 0.85383
w 71 -70 -52 0.406322
w 72 71 53 0
w 72 71 -53 0
w 72 -71 53 1
w 72 -71 -53 0
w 73 72 54 0
w 73 72 -54 1
w 73 -72 54 0
w 73 -72 -54 1
w 74 73 55 1
w 74 73 -55 0
w 74 -73 55 1
w 74 -73 -55 0
w 75 74 56 1
w 75 74 -56 0
w 75 -74 56 0
w 75 -74 -56 0
w 76 75 57 0
w 76 75 -57 0
w 76 -75 57 1
w 76 -75 -57 0
w 77 58 0
w 77 -58 1
w 78 77 59 0.0764269
w 78 77 -59 0.0843875
w 78 -77 59 0.2049
w 78 -77 -59 0.282959
w 79 78 60 1
w 79 78 -60 0
w 79 -78 60 0
w 79 -78 -60 0
w 80 79 61 1
w 80 79 -61 0
w 80 -79 61 1
w 80 -79 -61 0
w 81 80 62 1
w 81 80 -62 1
w 81 -80 62 0
w 81 -80 -62 1
w 82 81 63 0.484224
w 82 81 -63 0.131597
w 82 -81 63 0.176194
w 82 -81 -63 0.908851
w 83 82 64 1
w 83 82 -64 1
w 83 -82 64 0
w 83 -82 -64 0
w 84 83 65 1
w 84 83 -65 1
w 84 -83 65 1
w 84 -83 -65 0
w 85 84 66 0.204036
w 85 84 -66 0.189238
w 85 -84 66 0.405237
w 85 -84 -66 0.160979
w 86 85 67 0
w 86 85 -67 1
w 86 -85 67 0
w 86 -85 -67 1
w 87 86 68 0
w 87 86 -68 0
w 87 -86 68 1
w 87 -86 -68 1
w 88 87 69 0
w 88 87 -69 0
w 88 -87 69 1
w 88 -87 -69 0
w 89 88 70 1
w 89 88 -70 1
w 89 -88 70 0
w 89 -88 -70 1
w 90 89 71 0
w 90 89 -71 1
w 90 -89 71 1
w 90 -89 -71 1
w 91 90 72 1
w 91 90 -72 1
w 91 -90 72 0
w 91 -90 -72 1
w 92 91 73 1
w 92 91 -73 1
w 92 -91 73 1
w 92 -91 -73 0
w 93 92 74 0
w 93 92 -74 1
w 93 -92 74 1
w 93 -92 -74 1
w 94 93 75 1
w 94 93 -75 1
w 94 -93 75 0
w 94 -93 -75 1
w 95 94 76 0
w 95 94 -76 1
w 95 -94 76 1
w 95 -94 -76 1
w 96 77 0.0360638
w 96 -77 0.319556
w 97 96 78 0
w 97 96 -78 0
w 97 -96 78 0
w 97 -96 -78 1
w 98 97 79 0.445891
w 98 97 -79 0.934648
w 98 -97 79 0.609739
w 98 -97 -79 0.458807
w 99 98 80 1
w 99 98 -80 1
w 99 -98 80 0
w 99 -98 -80 1
w 100 99 81 1
w 100 99 -81 0
w 100 -99 81 1
w 100 -99 -81 0
w 101 100 82 0
w 101 100 -82 0
w 101 -100 82 0
w 101 -100 -82 1
w 102 101 83 0.478678
w 102 101 -83 0.618342
w 102 -101 83 0.788924
w 102 -101 -83 0.798234
w 103 102 84 0
w 103 102 -84 0
w 103 -102 84 0
w 103 -102 -84 1
w 104 103 85 0.0445648
w 104 103 -85 0.329268
w 104 -103 85 0.416823
w 104 -103 -85 0.503372
w 105 104 86 0
w 105 104 -86 0
w 105 -104 86 0
w 105 -104 -86 1
w 106 105 87 1
w 106 105 -87 0
w 106 -105 87 0
w 106 -105 -87 0
w 107 106 88 0
w 107 106 -88 0
w 107 -106 88 1
w 107 -106 -88 1
w 108 107 89 1
w 108 107 -89 1
w 108 -107 89 0
w 108 -107 -89 0
w 109 108 90 0
w 109 108 -90 0
w 109 -108 90 0
w 109 -108 -90 1
w 110 109 91 1
w 110 109 -91 0
w 110 -109 91 1
w 110 -109 -91 1
w 111 110 92 0
w 111 110 -92 0
w 111 -110 92 0
w 111 -110 -92 1
w 112 111 93 1
w 112 111 -93 1
w 112 -111 93 0
w 112 -111 -93 1
w 113 112 94 0.801936
w 113 112 -94 0.73446
w 113 -112 94 0.678556
w 113 -112 -94 0.303206
w 114 113 95 0
w 114 113 -95 0
w 114 -113 95 1
w 114 -113 -95 0
w 115 96 0.106739
w 115 -96 0.771059
w 116 115 97 0.178314
w 116 115 -97 0.438138
w 116 -115 97 0.798604
w 116 -115 -97 0.579157
w 117 116 98 0
w 117 116 -98 1
w 117 -116 98 0
w 117 -116 -98 0
w 118 117 99 0
w 118 117 -99 1
w 118 -117 99 1
w 118 -117 -99 1
w 119 118 100 0
w 119 118 -100 0
w 119 -118 100 1
w 119 -118 -100 1
w 120 119 101 0.89317
w 120 119 -101 0.212368
w 120 -119 101 0.639559
w 120 -119 -101 0.788863
w 121 120 102 0
w 121 120 -102 0
w 121 -120 102 1
w 121 -120 -102 0
w 122 121 103 0
w 122 121 -103 1
w 122 -121 103 0
w 122 -121 -103 1
w 123 122 104 0.431164
w 123 122 -104 0.335148
w 123 -122 104 0.578479
w 123 -122 -104 0.411358
w 124 123 105 0
w 124 123 -105 0
w 124 -123 105 1
w 124 -123 -105 1
w 125 124 106 0
w 125 124 -106 1
w 125 -124 106 0
w 125 -124 -106 1
w 126 125 107 0.263862
w 126 125 -107 0.753533
w 126 -125 107 0.1221
w 126 -125 -107 0.903421
w 127 126 108 1
w 127 126 -108 0
w 127 -126 108 1
w 127 -126 -108 1
w 128 127 109 0
w 128 127 -109 1
w 128 -127 109 1
w 128 -127 -109 1
w 129 128 110 0
w 129 128 -110 1
w 129 -128 110 1
w 129 -128 -110 1
w 130 129 111 0
w 130 129 -111 1
w 130 -129 111 1
w 130 -129 -111 1
w 131 130 112 0.81475
w 131 130 -112 0.807374
w 131 -130 112 0.282651
w 131 -130 -112 0.675114
w 132 131 113 0
w 132 131 -113 0
w 132 -131 113 0
w 132 -131 -113 1
w 133 132 114 0.596492
w 133 132 -114 0.422697
w 133 -132 114 0.213366
w 133 -132 -114 0.789744
w 134 115 1
w 134 -115 0
w 135 134 116 1
w 135 134 -116 0
w 135 -134 116 0
w 135 -134 -116 0
w 136 135 117 1
w 136 135 -117 1
w 136 -135 117 0
w 136 -135 -117 1
w 137 136 118 1
w 137 136 -118 0
w 137 -136 118 0
w 137 -136 -118 1
w 138 137 119 0
w 138 137 -119 1
w 138 -137 119 0
w 138 -137 -119 1
w 139 138 120 0
w 139 138 -120 1
w 139 -138 120 0
w 139 -138 -120 1
w 140 139 121 0
w 140 139 -121 0
w 140 -139 121 0
w 140 -139 -121 1
w 141 140 122 1
w 141 140 -122 1
w 141 -140 122 0
w 141 -140 -122 1
w 142 141 123 0
w 142 141 -123 0
w 142 -141 123 0
w 142 -141 -123 1
w 143 142 124 1
w 143 142 -124 1
w 143 -142 124 1
w 143 -142 -124 0
w 144 143 125 0.0429719
w 144 143 -125 0.640051
w 144 -143 125 0.654652
w 144 -143 -125 0.814567
w 145 144 126 1
w 145 144 -126 0
w 145 -144 126 1
w 145 -144 -126 1
w 146 145 127 1
w 146 145 -127 1
w 146 -145 127 0
w 146 -145 -127 1
w 147 146 128 0.823101
w 147 146 -128 0.644116
w 147 -146 128 0.851369
w 147 -146 -128 0.631474
w 148 147 129 1
w 148 147 -129 1
w 148 -147 129 0
w 148 -147 -129 1
w 149 148 130 1
w 149 148 -130 0
w 149 -148 130 1
w 149 -148 -130 0
w 150 149 131 0.660502
w 150 149 -131 0.492204
w 150 -149 131 0.564144
w 150 -149 -131 0.315154
w 151 150 132 1
w 151 150 -132 0
w 151 -150 132 0
w 151 -150 -132 0
w 152 151 133 1
w 152 151 -133 1
w 152 -151 133 0
w 152 -151 -133 1
w 153 134 0
w 153 -134 1
w 154 153 135 0.744437
w 154 153 -135 0.718138
w 154 -153 135 0.44907
w 154 -153 -135 0.162761
w 155 154 136 0
w 155 154 -136 1
w 155 -154 136 1
w 155 -154 -136 0
w 156 155 137 1
w 156 155 -137 1
w 156 -155 137 0
w 156 -155 -137 0
w 157 156 138 0.284329
w 157 156 -138 0.00866673
w 157 -156 138 0.216631
w 157 -156 -138 0.5911
w 158 157 139 0.440435
w 158 157 -139 0.323238
w 158 -157 139 0.481735
w 158 -157 -139 0.797929
w 159 158 140 1
w 159 158 -140 0
w 159 -158 140 0
w 159 -158 -140 1
w 160 159 141 0
w 160 159 -141 1
w 160 -159 141 1
w 160 -159 -141 1
w 161 160 142 1
w 161 160 -142 1
w 161 -160 142 1
w 161 -160 -142 0
w 162 161 143 1
w 162 161 -143 1
w 162 -161 143 0
w 162 -161 -143 1
w 163 162 144 1
w 163 162 -144 0
w 163 -162 144 1
w 163 -162 -144 0
w 164 163 145 1
w 164 163 -145 1
w 164 -163 145 1
w 164 -163 -145 0
w 165 164 146 0
w 165 164 -146 1
w 165 -164 146 1
w 165 -164 -146 1
w 166 165 147 1
w 166 165 -147 0
w 166 -165 147 0
w 166 -165 -147 1
w 167 166 148 1
w 167 166 -148 0
w 167 -166 148 1
w 167 -166 -148 1
w 168 167 149 0
w 168 167 -149 0
w 168 -167 149 0
w 168 -167 -149 1
w 169 168 150 1
w 169 168 -150 0
w 169 -168 150 1
w 169 -168 -150 1
w 170 169 151 0.826557
w 170 169 -151 0.0756763
w 170 -169 151 0.387604
w 170 -169 -151 0.676504
w 171 170 152 0
w 171 170 -152 1
w 171 -170 152 0
w 171 -170 -152 1
w 172 153 1
w 172 -153 0
w 173 172 154 0
w 173 172 -154 1
w 173 -172 154 1
w 173 -172 -154 1
w 174 173 155 1
w 174 173 -155 1
w 174 -173 155 0
w 174 -173 -155 1
w 175 174 156 0
w 175 174 -156 1
w 175 -174 156 0
w 175 -174 -156 0
w 176 175 157 0
w 176 175 -157 1
w 176 -175 157 1
w 176 -175 -157 0
w 177 176 158 0
w 177 176 -158 0
w 177 -176 158 1
w 177 -176 -158 0
w 178 177 159 0.215258
w 178 177 -159 0.264587
w 178 -177 159 0.00491052
w 178 -177 -159 0.98241
w 179 178 160 0.480086
w 179 178 -160 0.597845
w 179 -178 160 0.685682
w 179 -178 -160 0.560091
w 180 179 161 1
w 180 179 -161 1
w 180 -179 161 1
w 180 -179 -161 0
w 181 180 162 0
w 181 180 -162 0
w 181 -180 162 1
w 181 -180 -162 0
w 182 181 163 1
w 182 181 -163 1
w 182 -181 163 0
w 182 -181 -163 0
w 183 182 164 0.169194
w 183 182 -164 0.856328
w 183 -182 164 0.84999
w 183 -182 -164 0.139745
w 184 183 165 0.0652486
w 184 183 -165 0.404332
w 184 -183 165 0.787715
w 184 -183 -165 0.0476584
w 185 184 166 0
w 185 184 -166 1
w 185 -184 166 0
w 185 -184 -166 1
w 186 185 167 1
w 186 185 -167 0
w 186 -185 167 0
w 186 -185 -167 1
w 187 186 168 1
w 187 186 -168 1
w 187 -186 168 1
w 187 -186 -168 0
w 188 187 169 1
w 188 187 -169 0
w 188 -187 169 0
w 188 -187 -169 0
w 189 188 170 1
w 189 188 -170 0
w 189 -188 170 1
w 189 -188 -170 0
w 190 189 171 0
w 190 189 -171 0
w 190 -189 171 1
w 190 -189 -171 0
w 191 172 1
w 191 -172 0
w 192 191 173 1
w 192 191 -173 0
w 192 -191 173 1
w 192 -191 -173 0
w 193 192 174 1
w 193 192 -174 1
w 193 -192 174 0
w 193 -192 -174 0
w 194 193 175 0
w 194 193 -175 0
w 194 -193 175 1
w 194 -193 -175 0
w 195 194 176 0
w 195 194 -176 1
w 195 -194 176 0
w 195 -194 -176 0
w 196 195 177 0
w 196 195 -177 1
w 196 -195 177 0
w 196 -195 -177 0
w 197 196 178 0
w 197 196 -178 1
w 197 -196 178 1
w 197 -196 -178 1
w 198 197 179 1
w 198 197 -179 0
w 198 -197 179 1
w 198 -197 -179 0
w 199 198 180 0
w 199 198 -180 1
w 199 -198 180 0
w 199 -198 -180 0
w 200 199 181 1
w 200 199 -181 0
w 200 -199 181 0
w 200 -199 -181 0
w 201 200 182 0
w 201 200 -182 0
w 201 -200 182 0
w 201 -200 -182 1
w 202 201 183 0
w 202 201 -183 1
w 202 -201 183 1
w 202 -201 -183 0
w 203 202 184 0
w 203 202 -184 0
w 203 -202 184 1
w 203 -202 -184 0
w 204 203 185 0.287092
w 204 203 -185 0.70275
w 204 -203 185 0.450418
w 204 -203 -185 0.857115
w 205 204 186 0
w 205 204 -186 1
w 205 -204 186 0
w 205 -204 -186 0
w 206 205 187 1
w 206 205 -187 1
w 206 -205 187 0
w 206 -205 -187 1
w 207 206 188 0
w 207 206 -188 0
w 207 -206 188 1
w 207 -206 -188 0
w 208 207 189 0.131711
w 208 207 -189 0.816663
w 208 -207 189 0.0233061
w 208 -207 -189 0.56486
w 209 208 190 0.368717
w 209 208 -190 0.412596
w 209 -208 190 0.233978
w 209 -208 -190 0.234442
w 210 191 1
w 210 -191 0
w 211 210 192 0
w 211 210 -192 0
w 211 -210 192 1
w 211 -210 -192 1
w 212 211 193 0.650953
w 212 211 -193 0.273306
w 212 -211 193 0.375062
w 212 -211 -193 0.320989
w 213 212 194 1
w 213 212 -194 0
w 213 -212 194 1
w 213 -212 -194 1
w 214 213 195 0.818388
w 214 213 -195 0.931711
w 214 -213 195 0.715483
w 214 -213 -195 0.780113
w 215 214 196 0
w 215 214 -196 1
w 215 -214 196 0
w 215 -214 -196 1
w 216 215 197 0
w 216 215 -197 1
w 216 -215 197 0
w 216 -215 -197 0
w 217 216 198 1
w 217 216 -198 0
w 217 -216 198 1
w 217 -216 -198 0
w 218 217 199 1
w 218 217 -199 1
w 218 -217 199 0
w 218 -217 -199 1
w 219 218 200 0
w 219 218 -200 0
w 219 -218 200 0
w 219 -218 -200 1
w 220 219 201 1
w 220 219 -201 0
w 220 -219 201 0
w 220 -219 -201 1
w 221 220 202 0
w 221 220 -202 0
w 221 -220 202 1
w 221 -220 -202 0
w 222 221 203 0
w 222 221 -203 1
w 222 -221 203 0
w 222 -221 -203 0
w 223 222 204 0.474542
w 223 222 -204 0.911487
w 223 -222 204 0.527313
w 223 -222 -204 0.513378
w 224 223 205 1
w 224 223 -205 0
w 224 -223 205 0
w 224 -223 -205 0
w 225 224 206 0
w 225 224 -206 0
w 225 -224 206 1
w 225 -224 -206 1
w 226 225 207 0
w 226 225 -207 1
w 226 -225 207 0
w 226 -225 -207 1
w 227 226 208 0
w 227 226 -208 1
w 227 -226 208 0
w 227 -226 -208 0
w 228 227 209 0
w 228 227 -209 0
w 228 -227 209 1
w 228 -227 -209 0
w 229 210 0
w 229 -210 1
w 230 229 211 1
w 230 229 -211 0
w 230 -229 211 0
w 230 -229 -211 0
w 231 230 212 1
w 231 230 -212 0
w 231 -230 212 0
w 231 -230 -212 1
w 232 231 213 0
w 232 231 -213 0
w 232 -231 213 1
w 232 -231 -213 0
w 233 232 214 1
w 233 232 -214 0
w 233 -232 214 0
w 233 -232 -214 0
w 234 233 215 1
w 234 233 -215 1
w 234 -233 215 0
w 234 -233 -215 0
w 235 234 216 0
w 235 234 -216 1
w 235 -234 216 0
w 235 -234 -216 0
w 236 235 217 1
w 236 235 -217 1
w 236 -235 217 1
w 236 -235 -217 0
w 237 236 218 0
w 237 236 -218 1
w 237 -236 218 0
w 237 -236 -218 0
w 238 237 219 0
w 238 237 -219 1
w 238 -237 219 1
w 238 -237 -219 0
w 239 238 220 0.251698
w 239 238 -220 0.545425
w 239 -238 220 0.241153
w 239 -238 -220 0.621639
w 240 239 221 1
w 240 239 -221 1
w 240 -239 221 0
w 240 -239 -221 1
w 241 240 222 0.293732
w 241 240 -222 0.959763
w 241 -240 222 0.515752
w 241 -240 -222 0.150164
w 242 241 223 0.919158
w 242 241 -223 0.305609
w 242 -241 223 0.266382
w 242 -241 -223 0.553017
w 243 242 224 0
w 243 242 -224 0
w 243 -242 224 0
w 243 -242 -224 1
w 244 243 225 0
w 244 243 -225 1
w 244 -243 225 0
w 244 -243 -225 0
w 245 244 226 1
w 245 244 -226 0
w 245 -244 226 1
w 245 -244 -226 1
w 246 245 227 0
w 246 245 -227 1
w 246 -245 227 0
w 246 -245 -227 1
w 247 246 228 0.306698
w 247 246 -228 0.277286
w 247 -246 228 0.026158
w 247 -246 -228 0.0913613
w 248 229 1
w 248 -229 0
w 249 248 230 0
w 249 248 -230 0
w 249 -248 230 1
w 249 -248 -230 0
w 250 249 231 0.949614
w 250 249 -231 0.560297
w 250 -249 231 0.331791
w 250 -249 -231 0.973383
w 251 250 232 0.463
w 251 250 -232 0.0772722
w 251 -250 232 0.172329
w 251 -250 -232 0.845906
w 252 251 233 0
w 252 251 -233 0
w 252 -251 233 1
w 252 -251 -233 1
w 253 252 234 0.629341
w 253 252 -234 0.520904
w 253 -252 234 0.558034
w 253 -252 -234 0.505335
w 254 253 235 0.83532
w 254 253 -235 0.531493
w 254 -253 235 0.918963
w 254 -253 -235 0.0317639
w 255 254 236 0.276706
w 255 254 -236 0.781225
w 255 -254 236 0.468474
w 255 -254 -236 0.476844
w 256 255 237 0.330529
w 256 255 -237 0.426459
w 256 -255 237 0.513922
w 256 -255 -237 0.66232
w 257 256 238 0
w 257 256 -238 0
w 257 -256 238 1
w 257 -256 -238 0
w 258 257 239 0.2037
w 258 257 -239 0.272061
w 258 -257 239 0.821678
w 258 -257 -239 0.250778
w 259 258 240 1
w 259 258 -240 0
w 259 -258 240 0
w 259 -258 -240 0
w 260 259 241 0.0115309
w 260 259 -241 0.916947
w 260 -259 241 0.713501
w 260 -259 -241 0.0432947
w 261 260 242 0.990207
w 261 260 -242 0.824519
w 261 -260 242 0.248682
w 261 -260 -242 0.467052
w 262 261 243 0.57921
w 262 261 -243 0.893511
w 262 -261 243 0.292066
w 262 -261 -243 0.24153
w 263 262 244 1
w 263 262 -244 1
w 263 -262 244 1
w 263 -262 -244 0
w 264 263 245 0.521462
w 264 263 -245 0.159754
w 264 -263 245 0.224943
w 264 -263 -245 0.967493
w 265 264 246 0.105061
w 265 264 -246 0.934428
w 265 -264 246 0.954143
w 265 -264 -246 0.490515
w 266 265 247 0
w 266 265 -247 1
w 266 -265 247 1
w 266 -265 -247 1
w 267 248 1
w 267 -248 0
w 268 267 249 0.436351
w 268 267 -249 0.899726
w 268 -267 249 0.611632
w 268 -267 -249 0.0155614
w 269 268 250 0.903699
w 269 268 -250 0.257092
w 269 -268 250 0.0865886
w 269 -268 -250 0.588268
w 270 269 251 1
w 270 269 -251 0
w 270 -269 251 1
w 270 -269 -251 1
w 271 270 252 0
w 271 270 -252 0
w 271 -270 252 0
w 271 -270 -252 1
w 272 271 253 1
w 272 271 -253 1
w 272 -271 253 0
w 272 -271 -253 1
w 273 272 254 0.0592001
w 273 272 -254 0.432484
w 273 -272 254 0.82849
w 273 -272 -254 0.246869
w 274 273 255 0.661978
w 274 273 -255 0.68322
w 274 -273 255 0.764884
w 274 -273 -255 0.273611
w 275 274 256 1
w 275 274 -256 1
w 275 -274 256 0
w 275 -274 -256 1
w 276 275 257 0
w 276 275 -257 1
w 276 -275 257 0
w 276 -275 -257 1
w 277 276 258 0.663608
w 277 276 -258 0.389144
w 277 -276 258 0.289
w 277 -276 -258 0.563313
w 278 277 259 1
w 278 277 -259 0
w 278 -277 259 1
w 278 -277 -259 0
w 279 278 260 1
w 279 278 -260 0
w 279 -278 260 1
w 279 -278 -260 1
w 280 279 261 0.727151
w 280 279 -261 0.191395
w 280 -279 261 0.602593
w 280 -279 -261 0.00076207
w 281 280 262 0.160714
w 281 280 -262 0.178072
w 281 -280 262 0.84605
w 281 -280 -262 0.805423
w 282 281 263 0.425866
w 282 281 -263 0.307186
w 282 -281 263 0.546895
w 282 -281 -263 0.9677
w 283 282 264 0
w 283 282 -264 1
w 283 -282 264 1
w 283 -282 -264 0
w 284 283 265 0
w 284 283 -265 1
w 284 -283 265 1
w 284 -283 -265 1
w 285 284 266 0.848464
w 285 284 -266 0.0430899
w 285 -284 266 0.860941
w 285 -284 -266 0.913637
w 286 267 1
w 286 -267 0
w 287 286 268 1
w 287 286 -268 1
w 287 -286 268 1
w 287 -286 -268 0
w 288 287 269 0
w 288 287 -269 0
w 288 -287 269 1
w 288 -287 -269 0
w 289 288 270 0.574565
w 289 288 -270 0.310166
w 289 -288 270 0.872452
w 289 -288 -270 0.214733
w 290 289 271 0.50376
w 290 289 -271 0.244045
w 290 -289 271 0.617709
w 290 -289 -271 0.698381
w 291 290 272 0.966031
w 291 290 -272 0.310162
w 291 -290 272 0.605508
w 291 -290 -272 0.854421
w 292 291 273 0
w 292 291 -273 0
w 292 -291 273 1
w 292 -291 -273 1
w 293 292 274 1
w 293 292 -274 0
w 293 -292 274 0
w 293 -292 -274 1
w 294 293 275 0
w 294 293 -275 1
w 294 -293 275 1
w 294 -293 -275 1
w 295 294 276 0.958998
w 295 294 -276 0.0191518
w 295 -294 276 0.247662
w 295 -294 -276 0.83145
w 296 295 277 1
w 296 295 -277 1
w 296 -295 277 1
w 296 -295 -277 0
w 297 296 278 0
w 297 296 -278 1
w 297 -296 278 0
w 297 -296 -278 0
w 298 297 279 1
w 298 297 -279 0
w 298 -297 279 0
w 298 -297 -279 1
w 299 298 280 0.634634
w 299 298 -280 0.287696
w 299 -298 280 0.698146
w 299 -298 -280 0.349887
w 300 299 281 1
w 300 299 -281 1
w 300 -299 281 1
w 300 -299 -281 0
w 301 300 282 0.754019
w 301 300 -282 0.286748
w 301 -300 282 0.990834
w 301 -300 -282 0.00168084
w 302 301 283 0
w 302 301 -283 1
w 302 -301 283 0
w 302 -301 -283 0
w 303 302 284 0.487
w 303 302 -284 0.00430145
w 303 -302 284 0.404431
w 303 -302 -284 0.830753
w 304 303 285 0.909693
w 304 303 -285 0.333134
w 304 -303 285 0.467223
w 304 -303 -285 0.130316
w 305 286 0.222846
w 305 -286 0.76495
w 306 305 287 1
w 306 305 -287 1
w 306 -305 287 1
w 306 -305 -287 0
w 307 306 288 0
w 307 306 -288 0
w 307 -306 288 0
w 307 -306 -288 1
w 308 307 289 0.604449
w 308 307 -289 0.409994
w 308 -307 289 0.927192
w 308 -307 -289 0.829168
w 309 308 290 1
w 309 308 -290 0
w 309 -308 290 1
w 309 -308 -290 0
w 310 309 291 0
w 310 309 -291 1
w 310 -309 291 0
w 310 -309 -291 0
w 311 310 292 1
w 311 310 -292 1
w 311 -310 292 1
w 311 -310 -292 0
w 312 311 293 1
w 312 311 -293 1
w 312 -311 293 1
w 312 -311 -293 0
w 313 312 294 0
w 313 312 -294 1
w 313 -312 294 0
w 313 -312 -294 0
w 314 313 295 0
w 314 313 -295 0
w 314 -313 295 1
w 314 -313 -295 1
w 315 314 296 0
w 315 314 -296 0
w 315 -314 296 1
w 315 -314 -296 1
w 316 315 297 0.313691
w 316 315 -297 0.793052
w 316 -315 297 0.458128
w 316 -315 -297 0.761272
w 317 316 298 0
w 317 316 -298 0
w 317 -316 298 1
w 317 -316 -298 1
w 318 317 299 0.458106
w 318 317 -299 0.563618
w 318 -317 299 0.87237
w 318 -317 -299 0.0146992
w 319 318 300 1
w 319 318 -300 1
w 319 -318 300 0
w 319 -318 -300 1
w 320 319 301 0
w 320 319 -301 1
w 320 -319 301 0
w 320 -319 -301 1
w 321 320 302 0.68771
w 321 320 -302 0.567053
w 321 -320 302 0.889027
w 321 -320 -302 0.465284
w 322 321 303 0
w 322 321 -303 1
w 322 -321 303 1
w 322 -321 -303 1
w 323 322 304 1
w 323 322 -304 0
w 323 -322 304 0
w 323 -322 -304 1
w 324 305 0
w 324 -305 1
w 325 324 306 0
w 325 324 -306 0
w 325 -324 306 1
w 325 -324 -306 1
w 326 325 307 1
w 326 325 -307 0
w 326 -325 307 1
w 326 -325 -307 1
w 327 326 308 1
w 327 326 -308 0
w 327 -326 308 1
w 327 -326 -308 1
w 328 327 309 0
w 328 327 -309 1
w 328 -327 309 0
w 328 -327 -309 0
w 329 328 310 0.055714
w 329 328 -310 0.497813
w 329 -328 310 0.791944
w 329 -328 -310 0.65226
w 330 329 311 0
w 330 329 -311 1
w 330 -329 311 0
w 330 -329 -311 0
w 331 330 312 0
w 331 330 -312 1
w 331 -330 312 0
w 331 -330 -312 0
w 332 331 313 0
w 332 331 -313 0
w 332 -331 313 0
w 332 -331 -313 1
w 333 332 314 1
w 333 332 -314 0
w 333 -332 314 0
w 333 -332 -314 1
w 334 333 315 0
w 334 333 -315 1
w 334 -333 315 1
w 334 -333 -315 0
w 335 334 316 1
w 335 334 -316 1
w 335 -334 316 0
w 335 -334 -316 1
w 336 335 317 0
w 336 335 -317 0
w 336 -335 317 1
w 336 -335 -317 0
w 337 336 318 1
w 337 336 -318 0
w 337 -336 318 0
w 337 -336 -318 0
w 338 337 319 0
w 338 337 -319 0
w 338 -337 319 1
w 338 -337 -319 0
w 339 338 320 1
w 339 338 -320 1
w 339 -338 320 1
w 339 -338 -320 0
w 340 339 321 0
w 340 339 -321 0
w 340 -339 321 1
w 340 -339 -321 0
w 341 340 322 0
w 341 340 -322 1
w 341 -340 322 1
w 341 -340 -322 1
w 342 341 323 1
w 342 341 -323 1
w 342 -341 323 1
w 342 -341 -323 0
w 343 324 1
w 343 -324 0
w 344 343 325 0
w 344 343 -325 1
w 344 -343 325 0
w 344 -343 -325 0
w 345 344 326 1
w 345 344 -326 0
w 345 -344 326 0
w 345 -344 -326 0
w 346 345 327 1
w 346 345 -327 0
w 346 -345 327 1
w 346 -345 -327 1
w 347 346 328 0.274369
w 347 346 -328 0.00452064
w 347 -346 328 0.960399
w 347 -346 -328 0.888499
w 348 347 329 0.815327
w 348 347 -329 0.642161
w 348 -347 329 0.0327689
w 348 -347 -329 0.238803
w 349 348 330 1
w 349 348 -330 1
w 349 -348 330 0
w 349 -348 -330 0
w 350 349 331 0
w 350 349 -331 0
w 350 -349 331 1
w 350 -349 -331 0
w 351 350 332 0.566575
w 351 350 -332 0.624744
w 351 -350 332 0.233731
w 351 -350 -332 0.387871
w 352 351 333 1
w 352 351 -333 0
w 352 -351 333 0
w 352 -351 -333 0
w 353 352 334 0.971678
w 353 352 -334 0.668755
w 353 -352 334 0.812639
w 353 -352 -334 0.932077
w 354 353 335 0
w 354 353 -335 0
w 354 -353 335 1
w 354 -353 -335 0
w 355 354 336 0.398965
w 355 354 -336 0.973782
w 355 -354 336 0.961217
w 355 -354 -336 0.954182
w 356 355 337 0.631767
w 356 355 -337 0.00295427
w 356 -355 337 0.0971731
w 356 -355 -337 0.63172
w 357 356 338 0
w 357 356 -338 0
w 357 -356 338 0
w 357 -356 -338 1
w 358 357 339 0
w 358 357 -339 0
w 358 -357 339 0
w 358 -357 -339 1
w 359 358 340 0
w 359 358 -340 1
w 359 -358 340 0
w 359 -358 -340 0
w 360 359 341 0.281895
w 360 359 -341 0.737885
w 360 -359 341 0.564581
w 360 -359 -341 0.481311
w 361 360 342 0
w 361 360 -342 0
w 361 -360 342 1
w 361 -360 -342 1